GLPSOL--GLPK LP/MIP Solver 5.0
Parameter(s) specified in the command line:
 --lp ../modeles/2_29.lp --log 2_29.log
Reading problem data from '../modeles/2_29.lp'...
67 rows, 120 columns, 416 non-zeros
58 integer variables, all of which are binary
195 lines were read
GLPK Integer Optimizer 5.0
67 rows, 120 columns, 416 non-zeros
58 integer variables, all of which are binary
Preprocessing...
60 constraint coefficient(s) were reduced
67 rows, 118 columns, 414 non-zeros
58 integer variables, all of which are binary
Scaling...
 A: min|aij| =  4.756e-03  max|aij| =  4.000e+00  ratio =  8.410e+02
GM: min|aij| =  1.857e-01  max|aij| =  5.385e+00  ratio =  2.900e+01
EQ: min|aij| =  3.448e-02  max|aij| =  1.000e+00  ratio =  2.900e+01
2N: min|aij| =  3.125e-02  max|aij| =  1.590e+00  ratio =  5.087e+01
Constructing initial basis...
Size of triangular part is 67
Solving LP relaxation...
GLPK Simplex Optimizer 5.0
67 rows, 118 columns, 414 non-zeros
      0: obj =   4.000000000e+00 inf =   9.500e+00 (5)
     13: obj =   4.958333333e-01 inf =   0.000e+00 (0)
*    47: obj =  -1.407758621e+00 inf =   0.000e+00 (0)
OPTIMAL LP SOLUTION FOUND
Integer optimization begins...
Long-step dual simplex will be used
+    47: mip =     not found yet >=              -inf        (1; 0)
+    65: >>>>>  -1.403017241e+00 >=  -1.407758621e+00   0.3% (19; 0)
+   120: >>>>>  -1.407758621e+00 >=  -1.407758621e+00   0.0% (2; 35)
+   120: mip =  -1.407758621e+00 >=     tree is empty   0.0% (0; 39)
INTEGER OPTIMAL SOLUTION FOUND
Time used:   0.0 secs
Memory used: 0.2 Mb (227400 bytes)
